wmc_benchmarks/WMCBenchSingleMea/vqe_nativegates_ibm_qiskit_opt0_4.qasm.cnf
p cnf 267 1056
c p weight 11 1 0
c p weight -11 1 0
c p weight 12 0 0
c p weight -12 1 0
c p weight -9 1 0
c p weight 9 -1 0
c p weight 15 6.12323399573676603586882014729198302312846062338790031898128063403419218957424163818359375E-17 0
c p weight -15 1 0
c p weight 16 1 0
c p weight -16 1 0
c p weight -13 1 0
c p weight 13 -1 0
c p weight 19 0.99999999341620082748960385288228280842304229736328125 0
c p weight -19 1 0
c p weight 20 0.000114750156409794252750956877751065121628926135599613189697265625 0
c p weight -20 1 0
c p weight -17 1 0
c p weight 17 -1 0
c p weight 23 6.12323399573676603586882014729198302312846062338790031898128063403419218957424163818359375E-17 0
c p weight -23 1 0
c p weight 24 1 0
c p weight -24 1 0
c p weight -21 1 0
c p weight 21 -1 0
c p weight 27 -1 0
c p weight -27 1 0
c p weight 28 3.673940397442059375002259206809000622711899723162043418511757408850826323032379150390625E-16 0
c p weight -28 1 0
c p weight -25 1 0
c p weight 25 -1 0
c p weight 31 1 0
c p weight -31 1 0
c p weight 32 0 0
c p weight -32 1 0
c p weight -29 1 0
c p weight 29 -1 0
c p weight 35 6.12323399573676603586882014729198302312846062338790031898128063403419218957424163818359375E-17 0
c p weight -35 1 0
c p weight 36 1 0
c p weight -36 1 0
c p weight -33 1 0
c p weight 33 -1 0
c p weight 39 -0.75066076706900586312798395738354884088039398193359375 0
c p weight -39 1 0
c p weight 40 -0.66068783308259260156347636439022608101367950439453125 0
c p weight -40 1 0
c p weight -37 1 0
c p weight 37 -1 0
c p weight 43 6.12323399573676603586882014729198302312846062338790031898128063403419218957424163818359375E-17 0
c p weight -43 1 0
c p weight 44 1 0
c p weight -44 1 0
c p weight -41 1 0
c p weight 41 -1 0
c p weight 47 -1 0
c p weight -47 1 0
c p weight 48 3.673940397442059375002259206809000622711899723162043418511757408850826323032379150390625E-16 0
c p weight -48 1 0
c p weight -45 1 0
c p weight 45 -1 0
c p weight 51 1 0
c p weight -51 1 0
c p weight 52 0 0
c p weight -52 1 0
c p weight -49 1 0
c p weight 49 -1 0
c p weight 55 6.12323399573676603586882014729198302312846062338790031898128063403419218957424163818359375E-17 0
c p weight -55 1 0
c p weight 56 1 0
c p weight -56 1 0
c p weight -53 1 0
c p weight 53 -1 0
c p weight 59 -0.9999997634742612273583972637425176799297332763671875 0
c p weight -59 1 0
c p weight 60 -0.00068778733752219837517538625348834102624095976352691650390625 0
c p weight -60 1 0
c p weight -57 1 0
c p weight 57 -1 0
c p weight 63 6.12323399573676603586882014729198302312846062338790031898128063403419218957424163818359375E-17 0
c p weight -63 1 0
c p weight 64 1 0
c p weight -64 1 0
c p weight -61 1 0
c p weight 61 -1 0
c p weight 67 -1 0
c p weight -67 1 0
c p weight 68 3.673940397442059375002259206809000622711899723162043418511757408850826323032379150390625E-16 0
c p weight -68 1 0
c p weight -65 1 0
c p weight 65 -1 0
c p weight 71 1 0
c p weight -71 1 0
c p weight 72 0 0
c p weight -72 1 0
c p weight -69 1 0
c p weight 69 -1 0
c p weight 75 6.12323399573676603586882014729198302312846062338790031898128063403419218957424163818359375E-17 0
c p weight -75 1 0
c p weight 76 1 0
c p weight -76 1 0
c p weight -73 1 0
c p weight 73 -1 0
c p weight 79 0.42407775752533216628847867468721233308315277099609375 0
c p weight -79 1 0
c p weight 80 -0.90562578119899261874792273374623619019985198974609375 0
c p weight -80 1 0
c p weight -77 1 0
c p weight 77 -1 0
c p weight 83 6.12323399573676603586882014729198302312846062338790031898128063403419218957424163818359375E-17 0
c p weight -83 1 0
c p weight 84 1 0
c p weight -84 1 0
c p weight -81 1 0
c p weight 81 -1 0
c p weight 87 -1 0
c p weight -87 1 0
c p weight 88 3.673940397442059375002259206809000622711899723162043418511757408850826323032379150390625E-16 0
c p weight -88 1 0
c p weight -85 1 0
c p weight 85 -1 0
c p weight -89 1 0
c p weight 89 -1 0
c p weight -92 1 0
c p weight 92 -1 0
c p weight -95 1 0
c p weight 95 -1 0
c p weight 100 1 0
c p weight -100 1 0
c p weight 101 0 0
c p weight -101 1 0
c p weight -98 1 0
c p weight 98 -1 0
c p weight 104 6.12323399573676603586882014729198302312846062338790031898128063403419218957424163818359375E-17 0
c p weight -104 1 0
c p weight 105 1 0
c p weight -105 1 0
c p weight -102 1 0
c p weight 102 -1 0
c p weight 108 -0.999999969940104538324021632433868944644927978515625 0
c p weight -108 1 0
c p weight 109 0.000245193372566893563919976362086572407861240208148956298828125 0
c p weight -109 1 0
c p weight -106 1 0
c p weight 106 -1 0
c p weight 112 6.12323399573676603586882014729198302312846062338790031898128063403419218957424163818359375E-17 0
c p weight -112 1 0
c p weight 113 1 0
c p weight -113 1 0
c p weight -110 1 0
c p weight 110 -1 0
c p weight 116 -1 0
c p weight -116 1 0
c p weight 117 3.673940397442059375002259206809000622711899723162043418511757408850826323032379150390625E-16 0
c p weight -117 1 0
c p weight -114 1 0
c p weight 114 -1 0
c p weight 120 1 0
c p weight -120 1 0
c p weight 121 0 0
c p weight -121 1 0
c p weight -118 1 0
c p weight 118 -1 0
c p weight 124 6.12323399573676603586882014729198302312846062338790031898128063403419218957424163818359375E-17 0
c p weight -124 1 0
c p weight 125 1 0
c p weight -125 1 0
c p weight -122 1 0
c p weight 122 -1 0
c p weight 128 -0.98774388449546945967227884466410614550113677978515625 0
c p weight -128 1 0
c p weight 129 0.1560833708048386669897666934048174880445003509521484375 0
c p weight -129 1 0
c p weight -126 1 0
c p weight 126 -1 0
c p weight 132 6.12323399573676603586882014729198302312846062338790031898128063403419218957424163818359375E-17 0
c p weight -132 1 0
c p weight 133 1 0
c p weight -133 1 0
c p weight -130 1 0
c p weight 130 -1 0
c p weight 136 -1 0
c p weight -136 1 0
c p weight 137 3.673940397442059375002259206809000622711899723162043418511757408850826323032379150390625E-16 0
c p weight -137 1 0
c p weight -134 1 0
c p weight 134 -1 0
c p weight 140 1 0
c p weight -140 1 0
c p weight 141 0 0
c p weight -141 1 0
c p weight -138 1 0
c p weight 138 -1 0
c p weight 144 6.12323399573676603586882014729198302312846062338790031898128063403419218957424163818359375E-17 0
c p weight -144 1 0
c p weight 145 1 0
c p weight -145 1 0
c p weight -142 1 0
c p weight 142 -1 0
c p weight 148 0.9725555841630180164969488032511435449123382568359375 0
c p weight -148 1 0
c p weight 149 0.2326706593305886972000706691687810234725475311279296875 0
c p weight -149 1 0
c p weight -146 1 0
c p weight 146 -1 0
c p weight 152 6.12323399573676603586882014729198302312846062338790031898128063403419218957424163818359375E-17 0
c p weight -152 1 0
c p weight 153 1 0
c p weight -153 1 0
c p weight -150 1 0
c p weight 150 -1 0
c p weight 156 -1 0
c p weight -156 1 0
c p weight 157 3.673940397442059375002259206809000622711899723162043418511757408850826323032379150390625E-16 0
c p weight -157 1 0
c p weight -154 1 0
c p weight 154 -1 0
c p weight 160 1 0
c p weight -160 1 0
c p weight 161 0 0
c p weight -161 1 0
c p weight -158 1 0
c p weight 158 -1 0
c p weight 164 6.12323399573676603586882014729198302312846062338790031898128063403419218957424163818359375E-17 0
c p weight -164 1 0
c p weight 165 1 0
c p weight -165 1 0
c p weight -162 1 0
c p weight 162 -1 0
c p weight 168 0.9057326326424128826175774520379491150379180908203125 0
c p weight -168 1 0
c p weight 169 -0.423849499429507503567293724699993617832660675048828125 0
c p weight -169 1 0
c p weight -166 1 0
c p weight 166 -1 0
c p weight 172 6.12323399573676603586882014729198302312846062338790031898128063403419218957424163818359375E-17 0
c p weight -172 1 0
c p weight 173 1 0
c p weight -173 1 0
c p weight -170 1 0
c p weight 170 -1 0
c p weight 176 -1 0
c p weight -176 1 0
c p weight 177 3.673940397442059375002259206809000622711899723162043418511757408850826323032379150390625E-16 0
c p weight -177 1 0
c p weight -174 1 0
c p weight 174 -1 0
c p weight -178 1 0
c p weight 178 -1 0
c p weight -181 1 0
c p weight 181 -1 0
c p weight -184 1 0
c p weight 184 -1 0
c p weight 189 1 0
c p weight -189 1 0
c p weight 190 0 0
c p weight -190 1 0
c p weight -187 1 0
c p weight 187 -1 0
c p weight 193 6.12323399573676603586882014729198302312846062338790031898128063403419218957424163818359375E-17 0
c p weight -193 1 0
c p weight 194 1 0
c p weight -194 1 0
c p weight -191 1 0
c p weight 191 -1 0
c p weight 197 -0.99999999918888138328298964552232064306735992431640625 0
c p weight -197 1 0
c p weight 198 0.00004027700494580081585181685621677161179832182824611663818359375 0
c p weight -198 1 0
c p weight -195 1 0
c p weight 195 -1 0
c p weight 201 6.12323399573676603586882014729198302312846062338790031898128063403419218957424163818359375E-17 0
c p weight -201 1 0
c p weight 202 1 0
c p weight -202 1 0
c p weight -199 1 0
c p weight 199 -1 0
c p weight 205 -1 0
c p weight -205 1 0
c p weight 206 3.673940397442059375002259206809000622711899723162043418511757408850826323032379150390625E-16 0
c p weight -206 1 0
c p weight -203 1 0
c p weight 203 -1 0
c p weight 209 1 0
c p weight -209 1 0
c p weight 210 0 0
c p weight -210 1 0
c p weight -207 1 0
c p weight 207 -1 0
c p weight 213 6.12323399573676603586882014729198302312846062338790031898128063403419218957424163818359375E-17 0
c p weight -213 1 0
c p weight 214 1 0
c p weight -214 1 0
c p weight -211 1 0
c p weight 211 -1 0
c p weight 217 -0.741490656267568493120734274270944297313690185546875 0
c p weight -217 1 0
c p weight 218 0.670963193228876431106755262590013444423675537109375 0
c p weight -218 1 0
c p weight -215 1 0
c p weight 215 -1 0
c p weight 221 6.12323399573676603586882014729198302312846062338790031898128063403419218957424163818359375E-17 0
c p weight -221 1 0
c p weight 222 1 0
c p weight -222 1 0
c p weight -219 1 0
c p weight 219 -1 0
c p weight 225 -1 0
c p weight -225 1 0
c p weight 226 3.673940397442059375002259206809000622711899723162043418511757408850826323032379150390625E-16 0
c p weight -226 1 0
c p weight -223 1 0
c p weight 223 -1 0
c p weight 229 1 0
c p weight -229 1 0
c p weight 230 0 0
c p weight -230 1 0
c p weight -227 1 0
c p weight 227 -1 0
c p weight 233 6.12323399573676603586882014729198302312846062338790031898128063403419218957424163818359375E-17 0
c p weight -233 1 0
c p weight 234 1 0
c p weight -234 1 0
c p weight -231 1 0
c p weight 231 -1 0
c p weight 237 -0.98453380231138254430334200151264667510986328125 0
c p weight -237 1 0
c p weight 238 0.1751947262513671998984676747568300925195217132568359375 0
c p weight -238 1 0
c p weight -235 1 0
c p weight 235 -1 0
c p weight 241 6.12323399573676603586882014729198302312846062338790031898128063403419218957424163818359375E-17 0
c p weight -241 1 0
c p weight 242 1 0
c p weight -242 1 0
c p weight -239 1 0
c p weight 239 -1 0
c p weight 245 -1 0
c p weight -245 1 0
c p weight 246 3.673940397442059375002259206809000622711899723162043418511757408850826323032379150390625E-16 0
c p weight -246 1 0
c p weight -243 1 0
c p weight 243 -1 0
c p weight 249 1 0
c p weight -249 1 0
c p weight 250 0 0
c p weight -250 1 0
c p weight -247 1 0
c p weight 247 -1 0
c p weight 253 6.12323399573676603586882014729198302312846062338790031898128063403419218957424163818359375E-17 0
c p weight -253 1 0
c p weight 254 1 0
c p weight -254 1 0
c p weight -251 1 0
c p weight 251 -1 0
c p weight 257 -0.00000521941199674136500842765162833103431694325990974903106689453125 0
c p weight -257 1 0
c p weight 258 0.99999999998637889575547887943685054779052734375 0
c p weight -258 1 0
c p weight -255 1 0
c p weight 255 -1 0
c p weight 261 6.12323399573676603586882014729198302312846062338790031898128063403419218957424163818359375E-17 0
c p weight -261 1 0
c p weight 262 1 0
c p weight -262 1 0
c p weight -259 1 0
c p weight 259 -1 0
c p weight 265 -1 0
c p weight -265 1 0
c p weight 266 3.673940397442059375002259206809000622711899723162043418511757408850826323032379150390625E-16 0
c p weight -266 1 0
c p weight -263 1 0
c p weight 263 -1 0
c p weight 267 0.5 0
c p weight -267 1 0
267 0
-7 0
-5 0
-3 0
-1 0
-9 1 0
-9 2 0
-9 -10 0
9 10 -1 -2 0
10 1 -2 0
-10 1 2 0
-11 1 0
10 -11 -2 0
-10 -11 2 0
10 11 -1 2 0
-10 11 -1 -2 0
-12 1 0
10 -12 2 0
-10 -12 -2 0
10 12 -1 -2 0
-10 12 -1 2 0
-13 14 0
-13 10 0
-13 -1 0
13 -14 1 -10 0
14 -1 10 0
-14 1 10 0
-15 10 0
14 -15 -1 0
-14 -15 1 0
14 15 1 -10 0
-14 15 -1 -10 0
-16 10 0
14 -16 1 0
-14 -16 -1 0
14 16 -1 -10 0
-14 16 1 -10 0
-17 14 0
-17 10 0
-17 -18 0
17 18 -14 -10 0
18 14 -10 0
-18 14 10 0
-19 14 0
18 -19 -10 0
-18 -19 10 0
18 19 -14 10 0
-18 19 -14 -10 0
-20 14 0
18 -20 10 0
-18 -20 -10 0
18 20 -14 -10 0
-18 20 -14 10 0
-21 22 0
-21 18 0
-21 -14 0
21 -22 14 -18 0
22 -14 18 0
-22 14 18 0
-23 18 0
22 -23 -14 0
-22 -23 14 0
22 23 14 -18 0
-22 23 -14 -18 0
-24 18 0
22 -24 14 0
-22 -24 -14 0
22 24 -14 -18 0
-22 24 14 -18 0
-25 22 0
-25 18 0
-25 -26 0
25 26 -22 -18 0
26 22 -18 0
-26 22 18 0
-27 22 0
26 -27 -18 0
-26 -27 18 0
26 27 -22 18 0
-26 27 -22 -18 0
-28 22 0
26 -28 18 0
-26 -28 -18 0
26 28 -22 -18 0
-26 28 -22 18 0
-29 3 0
-29 4 0
-29 -30 0
29 30 -3 -4 0
30 3 -4 0
-30 3 4 0
-31 3 0
30 -31 -4 0
-30 -31 4 0
30 31 -3 4 0
-30 31 -3 -4 0
-32 3 0
30 -32 4 0
-30 -32 -4 0
30 32 -3 -4 0
-30 32 -3 4 0
-33 34 0
-33 30 0
-33 -3 0
33 -34 3 -30 0
34 -3 30 0
-34 3 30 0
-35 30 0
34 -35 -3 0
-34 -35 3 0
34 35 3 -30 0
-34 35 -3 -30 0
-36 30 0
34 -36 3 0
-34 -36 -3 0
34 36 -3 -30 0
-34 36 3 -30 0
-37 34 0
-37 30 0
-37 -38 0
37 38 -34 -30 0
38 34 -30 0
-38 34 30 0
-39 34 0
38 -39 -30 0
-38 -39 30 0
38 39 -34 30 0
-38 39 -34 -30 0
-40 34 0
38 -40 30 0
-38 -40 -30 0
38 40 -34 -30 0
-38 40 -34 30 0
-41 42 0
-41 38 0
-41 -34 0
41 -42 34 -38 0
42 -34 38 0
-42 34 38 0
-43 38 0
42 -43 -34 0
-42 -43 34 0
42 43 34 -38 0
-42 43 -34 -38 0
-44 38 0
42 -44 34 0
-42 -44 -34 0
42 44 -34 -38 0
-42 44 34 -38 0
-45 42 0
-45 38 0
-45 -46 0
45 46 -42 -38 0
46 42 -38 0
-46 42 38 0
-47 42 0
46 -47 -38 0
-46 -47 38 0
46 47 -42 38 0
-46 47 -42 -38 0
-48 42 0
46 -48 38 0
-46 -48 -38 0
46 48 -42 -38 0
-46 48 -42 38 0
-49 5 0
-49 6 0
-49 -50 0
49 50 -5 -6 0
50 5 -6 0
-50 5 6 0
-51 5 0
50 -51 -6 0
-50 -51 6 0
50 51 -5 6 0
-50 51 -5 -6 0
-52 5 0
50 -52 6 0
-50 -52 -6 0
50 52 -5 -6 0
-50 52 -5 6 0
-53 54 0
-53 50 0
-53 -5 0
53 -54 5 -50 0
54 -5 50 0
-54 5 50 0
-55 50 0
54 -55 -5 0
-54 -55 5 0
54 55 5 -50 0
-54 55 -5 -50 0
-56 50 0
54 -56 5 0
-54 -56 -5 0
54 56 -5 -50 0
-54 56 5 -50 0
-57 54 0
-57 50 0
-57 -58 0
57 58 -54 -50 0
58 54 -50 0
-58 54 50 0
-59 54 0
58 -59 -50 0
-58 -59 50 0
58 59 -54 50 0
-58 59 -54 -50 0
-60 54 0
58 -60 50 0
-58 -60 -50 0
58 60 -54 -50 0
-58 60 -54 50 0
-61 62 0
-61 58 0
-61 -54 0
61 -62 54 -58 0
62 -54 58 0
-62 54 58 0
-63 58 0
62 -63 -54 0
-62 -63 54 0
62 63 54 -58 0
-62 63 -54 -58 0
-64 58 0
62 -64 54 0
-62 -64 -54 0
62 64 -54 -58 0
-62 64 54 -58 0
-65 62 0
-65 58 0
-65 -66 0
65 66 -62 -58 0
66 62 -58 0
-66 62 58 0
-67 62 0
66 -67 -58 0
-66 -67 58 0
66 67 -62 58 0
-66 67 -62 -58 0
-68 62 0
66 -68 58 0
-66 -68 -58 0
66 68 -62 -58 0
-66 68 -62 58 0
-69 7 0
-69 8 0
-69 -70 0
69 70 -7 -8 0
70 7 -8 0
-70 7 8 0
-71 7 0
70 -71 -8 0
-70 -71 8 0
70 71 -7 8 0
-70 71 -7 -8 0
-72 7 0
70 -72 8 0
-70 -72 -8 0
70 72 -7 -8 0
-70 72 -7 8 0
-73 74 0
-73 70 0
-73 -7 0
73 -74 7 -70 0
74 -7 70 0
-74 7 70 0
-75 70 0
74 -75 -7 0
-74 -75 7 0
74 75 7 -70 0
-74 75 -7 -70 0
-76 70 0
74 -76 7 0
-74 -76 -7 0
74 76 -7 -70 0
-74 76 7 -70 0
-77 74 0
-77 70 0
-77 -78 0
77 78 -74 -70 0
78 74 -70 0
-78 74 70 0
-79 74 0
78 -79 -70 0
-78 -79 70 0
78 79 -74 70 0
-78 79 -74 -70 0
-80 74 0
78 -80 70 0
-78 -80 -70 0
78 80 -74 -70 0
-78 80 -74 70 0
-81 82 0
-81 78 0
-81 -74 0
81 -82 74 -78 0
82 -74 78 0
-82 74 78 0
-83 78 0
82 -83 -74 0
-82 -83 74 0
82 83 74 -78 0
-82 83 -74 -78 0
-84 78 0
82 -84 74 0
-82 -84 -74 0
82 84 -74 -78 0
-82 84 74 -78 0
-85 82 0
-85 78 0
-85 -86 0
85 86 -82 -78 0
86 82 -78 0
-86 82 78 0
-87 82 0
86 -87 -78 0
-86 -87 78 0
86 87 -82 78 0
-86 87 -82 -78 0
-88 82 0
86 -88 78 0
-86 -88 -78 0
86 88 -82 -78 0
-86 88 -82 78 0
-89 62 0
-89 86 0
-89 82 -66 0
-89 -82 66 0
89 -62 82 66 -86 0
89 -62 -82 -66 -86 0
91 62 -82 0
91 -62 82 0
-91 62 82 0
-91 -62 -82 0
90 66 -86 0
90 -66 86 0
-90 66 86 0
-90 -66 -86 0
-92 42 0
-92 90 0
-92 62 -46 0
-92 -62 46 0
92 -42 62 46 -90 0
92 -42 -62 -46 -90 0
94 42 -62 0
94 -42 62 0
-94 42 62 0
-94 -42 -62 0
93 46 -90 0
93 -46 90 0
-93 46 90 0
-93 -46 -90 0
-95 22 0
-95 93 0
-95 42 -26 0
-95 -42 26 0
95 -22 42 26 -93 0
95 -22 -42 -26 -93 0
97 22 -42 0
97 -22 42 0
-97 22 42 0
-97 -22 -42 0
96 26 -93 0
96 -26 93 0
-96 26 93 0
-96 -26 -93 0
-98 22 0
-98 96 0
-98 -99 0
98 99 -22 -96 0
99 22 -96 0
-99 22 96 0
-100 22 0
99 -100 -96 0
-99 -100 96 0
99 100 -22 96 0
-99 100 -22 -96 0
-101 22 0
99 -101 96 0
-99 -101 -96 0
99 101 -22 -96 0
-99 101 -22 96 0
-102 103 0
-102 99 0
-102 -22 0
102 -103 22 -99 0
103 -22 99 0
-103 22 99 0
-104 99 0
103 -104 -22 0
-103 -104 22 0
103 104 22 -99 0
-103 104 -22 -99 0
-105 99 0
103 -105 22 0
-103 -105 -22 0
103 105 -22 -99 0
-103 105 22 -99 0
-106 103 0
-106 99 0
-106 -107 0
106 107 -103 -99 0
107 103 -99 0
-107 103 99 0
-108 103 0
107 -108 -99 0
-107 -108 99 0
107 108 -103 99 0
-107 108 -103 -99 0
-109 103 0
107 -109 99 0
-107 -109 -99 0
107 109 -103 -99 0
-107 109 -103 99 0
-110 111 0
-110 107 0
-110 -103 0
110 -111 103 -107 0
111 -103 107 0
-111 103 107 0
-112 107 0
111 -112 -103 0
-111 -112 103 0
111 112 103 -107 0
-111 112 -103 -107 0
-113 107 0
111 -113 103 0
-111 -113 -103 0
111 113 -103 -107 0
-111 113 103 -107 0
-114 111 0
-114 107 0
-114 -115 0
114 115 -111 -107 0
115 111 -107 0
-115 111 107 0
-116 111 0
115 -116 -107 0
-115 -116 107 0
115 116 -111 107 0
-115 116 -111 -107 0
-117 111 0
115 -117 107 0
-115 -117 -107 0
115 117 -111 -107 0
-115 117 -111 107 0
-118 97 0
-118 93 0
-118 -119 0
118 119 -97 -93 0
119 97 -93 0
-119 97 93 0
-120 97 0
119 -120 -93 0
-119 -120 93 0
119 120 -97 93 0
-119 120 -97 -93 0
-121 97 0
119 -121 93 0
-119 -121 -93 0
119 121 -97 -93 0
-119 121 -97 93 0
-122 123 0
-122 119 0
-122 -97 0
122 -123 97 -119 0
123 -97 119 0
-123 97 119 0
-124 119 0
123 -124 -97 0
-123 -124 97 0
123 124 97 -119 0
-123 124 -97 -119 0
-125 119 0
123 -125 97 0
-123 -125 -97 0
123 125 -97 -119 0
-123 125 97 -119 0
-126 123 0
-126 119 0
-126 -127 0
126 127 -123 -119 0
127 123 -119 0
-127 123 119 0
-128 123 0
127 -128 -119 0
-127 -128 119 0
127 128 -123 119 0
-127 128 -123 -119 0
-129 123 0
127 -129 119 0
-127 -129 -119 0
127 129 -123 -119 0
-127 129 -123 119 0
-130 131 0
-130 127 0
-130 -123 0
130 -131 123 -127 0
131 -123 127 0
-131 123 127 0
-132 127 0
131 -132 -123 0
-131 -132 123 0
131 132 123 -127 0
-131 132 -123 -127 0
-133 127 0
131 -133 123 0
-131 -133 -123 0
131 133 -123 -127 0
-131 133 123 -127 0
-134 131 0
-134 127 0
-134 -135 0
134 135 -131 -127 0
135 131 -127 0
-135 131 127 0
-136 131 0
135 -136 -127 0
-135 -136 127 0
135 136 -131 127 0
-135 136 -131 -127 0
-137 131 0
135 -137 127 0
-135 -137 -127 0
135 137 -131 -127 0
-135 137 -131 127 0
-138 94 0
-138 90 0
-138 -139 0
138 139 -94 -90 0
139 94 -90 0
-139 94 90 0
-140 94 0
139 -140 -90 0
-139 -140 90 0
139 140 -94 90 0
-139 140 -94 -90 0
-141 94 0
139 -141 90 0
-139 -141 -90 0
139 141 -94 -90 0
-139 141 -94 90 0
-142 143 0
-142 139 0
-142 -94 0
142 -143 94 -139 0
143 -94 139 0
-143 94 139 0
-144 139 0
143 -144 -94 0
-143 -144 94 0
143 144 94 -139 0
-143 144 -94 -139 0
-145 139 0
143 -145 94 0
-143 -145 -94 0
143 145 -94 -139 0
-143 145 94 -139 0
-146 143 0
-146 139 0
-146 -147 0
146 147 -143 -139 0
147 143 -139 0
-147 143 139 0
-148 143 0
147 -148 -139 0
-147 -148 139 0
147 148 -143 139 0
-147 148 -143 -139 0
-149 143 0
147 -149 139 0
-147 -149 -139 0
147 149 -143 -139 0
-147 149 -143 139 0
-150 151 0
-150 147 0
-150 -143 0
150 -151 143 -147 0
151 -143 147 0
-151 143 147 0
-152 147 0
151 -152 -143 0
-151 -152 143 0
151 152 143 -147 0
-151 152 -143 -147 0
-153 147 0
151 -153 143 0
-151 -153 -143 0
151 153 -143 -147 0
-151 153 143 -147 0
-154 151 0
-154 147 0
-154 -155 0
154 155 -151 -147 0
155 151 -147 0
-155 151 147 0
-156 151 0
155 -156 -147 0
-155 -156 147 0
155 156 -151 147 0
-155 156 -151 -147 0
-157 151 0
155 -157 147 0
-155 -157 -147 0
155 157 -151 -147 0
-155 157 -151 147 0
-158 91 0
-158 86 0
-158 -159 0
158 159 -91 -86 0
159 91 -86 0
-159 91 86 0
-160 91 0
159 -160 -86 0
-159 -160 86 0
159 160 -91 86 0
-159 160 -91 -86 0
-161 91 0
159 -161 86 0
-159 -161 -86 0
159 161 -91 -86 0
-159 161 -91 86 0
-162 163 0
-162 159 0
-162 -91 0
162 -163 91 -159 0
163 -91 159 0
-163 91 159 0
-164 159 0
163 -164 -91 0
-163 -164 91 0
163 164 91 -159 0
-163 164 -91 -159 0
-165 159 0
163 -165 91 0
-163 -165 -91 0
163 165 -91 -159 0
-163 165 91 -159 0
-166 163 0
-166 159 0
-166 -167 0
166 167 -163 -159 0
167 163 -159 0
-167 163 159 0
-168 163 0
167 -168 -159 0
-167 -168 159 0
167 168 -163 159 0
-167 168 -163 -159 0
-169 163 0
167 -169 159 0
-167 -169 -159 0
167 169 -163 -159 0
-167 169 -163 159 0
-170 171 0
-170 167 0
-170 -163 0
170 -171 163 -167 0
171 -163 167 0
-171 163 167 0
-172 167 0
171 -172 -163 0
-171 -172 163 0
171 172 163 -167 0
-171 172 -163 -167 0
-173 167 0
171 -173 163 0
-171 -173 -163 0
171 173 -163 -167 0
-171 173 163 -167 0
-174 171 0
-174 167 0
-174 -175 0
174 175 -171 -167 0
175 171 -167 0
-175 171 167 0
-176 171 0
175 -176 -167 0
-175 -176 167 0
175 176 -171 167 0
-175 176 -171 -167 0
-177 171 0
175 -177 167 0
-175 -177 -167 0
175 177 -171 -167 0
-175 177 -171 167 0
-178 151 0
-178 175 0
-178 171 -155 0
-178 -171 155 0
178 -151 171 155 -175 0
178 -151 -171 -155 -175 0
180 151 -171 0
180 -151 171 0
-180 151 171 0
-180 -151 -171 0
179 155 -175 0
179 -155 175 0
-179 155 175 0
-179 -155 -175 0
-181 131 0
-181 179 0
-181 151 -135 0
-181 -151 135 0
181 -131 151 135 -179 0
181 -131 -151 -135 -179 0
183 131 -151 0
183 -131 151 0
-183 131 151 0
-183 -131 -151 0
182 135 -179 0
182 -135 179 0
-182 135 179 0
-182 -135 -179 0
-184 111 0
-184 182 0
-184 131 -115 0
-184 -131 115 0
184 -111 131 115 -182 0
184 -111 -131 -115 -182 0
186 111 -131 0
186 -111 131 0
-186 111 131 0
-186 -111 -131 0
185 115 -182 0
185 -115 182 0
-185 115 182 0
-185 -115 -182 0
-187 111 0
-187 185 0
-187 -188 0
187 188 -111 -185 0
188 111 -185 0
-188 111 185 0
-189 111 0
188 -189 -185 0
-188 -189 185 0
188 189 -111 185 0
-188 189 -111 -185 0
-190 111 0
188 -190 185 0
-188 -190 -185 0
188 190 -111 -185 0
-188 190 -111 185 0
-191 192 0
-191 188 0
-191 -111 0
191 -192 111 -188 0
192 -111 188 0
-192 111 188 0
-193 188 0
192 -193 -111 0
-192 -193 111 0
192 193 111 -188 0
-192 193 -111 -188 0
-194 188 0
192 -194 111 0
-192 -194 -111 0
192 194 -111 -188 0
-192 194 111 -188 0
-195 192 0
-195 188 0
-195 -196 0
195 196 -192 -188 0
196 192 -188 0
-196 192 188 0
-197 192 0
196 -197 -188 0
-196 -197 188 0
196 197 -192 188 0
-196 197 -192 -188 0
-198 192 0
196 -198 188 0
-196 -198 -188 0
196 198 -192 -188 0
-196 198 -192 188 0
-199 200 0
-199 196 0
-199 -192 0
199 -200 192 -196 0
200 -192 196 0
-200 192 196 0
-201 196 0
200 -201 -192 0
-200 -201 192 0
200 201 192 -196 0
-200 201 -192 -196 0
-202 196 0
200 -202 192 0
-200 -202 -192 0
200 202 -192 -196 0
-200 202 192 -196 0
-203 200 0
-203 196 0
-203 -204 0
203 204 -200 -196 0
204 200 -196 0
-204 200 196 0
-205 200 0
204 -205 -196 0
-204 -205 196 0
204 205 -200 196 0
-204 205 -200 -196 0
-206 200 0
204 -206 196 0
-204 -206 -196 0
204 206 -200 -196 0
-204 206 -200 196 0
-207 186 0
-207 182 0
-207 -208 0
207 208 -186 -182 0
208 186 -182 0
-208 186 182 0
-209 186 0
208 -209 -182 0
-208 -209 182 0
208 209 -186 182 0
-208 209 -186 -182 0
-210 186 0
208 -210 182 0
-208 -210 -182 0
208 210 -186 -182 0
-208 210 -186 182 0
-211 212 0
-211 208 0
-211 -186 0
211 -212 186 -208 0
212 -186 208 0
-212 186 208 0
-213 208 0
212 -213 -186 0
-212 -213 186 0
212 213 186 -208 0
-212 213 -186 -208 0
-214 208 0
212 -214 186 0
-212 -214 -186 0
212 214 -186 -208 0
-212 214 186 -208 0
-215 212 0
-215 208 0
-215 -216 0
215 216 -212 -208 0
216 212 -208 0
-216 212 208 0
-217 212 0
216 -217 -208 0
-216 -217 208 0
216 217 -212 208 0
-216 217 -212 -208 0
-218 212 0
216 -218 208 0
-216 -218 -208 0
216 218 -212 -208 0
-216 218 -212 208 0
-219 220 0
-219 216 0
-219 -212 0
219 -220 212 -216 0
220 -212 216 0
-220 212 216 0
-221 216 0
220 -221 -212 0
-220 -221 212 0
220 221 212 -216 0
-220 221 -212 -216 0
-222 216 0
220 -222 212 0
-220 -222 -212 0
220 222 -212 -216 0
-220 222 212 -216 0
-223 220 0
-223 216 0
-223 -224 0
223 224 -220 -216 0
224 220 -216 0
-224 220 216 0
-225 220 0
224 -225 -216 0
-224 -225 216 0
224 225 -220 216 0
-224 225 -220 -216 0
-226 220 0
224 -226 216 0
-224 -226 -216 0
224 226 -220 -216 0
-224 226 -220 216 0
-227 183 0
-227 179 0
-227 -228 0
227 228 -183 -179 0
228 183 -179 0
-228 183 179 0
-229 183 0
228 -229 -179 0
-228 -229 179 0
228 229 -183 179 0
-228 229 -183 -179 0
-230 183 0
228 -230 179 0
-228 -230 -179 0
228 230 -183 -179 0
-228 230 -183 179 0
-231 232 0
-231 228 0
-231 -183 0
231 -232 183 -228 0
232 -183 228 0
-232 183 228 0
-233 228 0
232 -233 -183 0
-232 -233 183 0
232 233 183 -228 0
-232 233 -183 -228 0
-234 228 0
232 -234 183 0
-232 -234 -183 0
232 234 -183 -228 0
-232 234 183 -228 0
-235 232 0
-235 228 0
-235 -236 0
235 236 -232 -228 0
236 232 -228 0
-236 232 228 0
-237 232 0
236 -237 -228 0
-236 -237 228 0
236 237 -232 228 0
-236 237 -232 -228 0
-238 232 0
236 -238 228 0
-236 -238 -228 0
236 238 -232 -228 0
-236 238 -232 228 0
-239 240 0
-239 236 0
-239 -232 0
239 -240 232 -236 0
240 -232 236 0
-240 232 236 0
-241 236 0
240 -241 -232 0
-240 -241 232 0
240 241 232 -236 0
-240 241 -232 -236 0
-242 236 0
240 -242 232 0
-240 -242 -232 0
240 242 -232 -236 0
-240 242 232 -236 0
-243 240 0
-243 236 0
-243 -244 0
243 244 -240 -236 0
244 240 -236 0
-244 240 236 0
-245 240 0
244 -245 -236 0
-244 -245 236 0
244 245 -240 236 0
-244 245 -240 -236 0
-246 240 0
244 -246 236 0
-244 -246 -236 0
244 246 -240 -236 0
-244 246 -240 236 0
-247 180 0
-247 175 0
-247 -248 0
247 248 -180 -175 0
248 180 -175 0
-248 180 175 0
-249 180 0
248 -249 -175 0
-248 -249 175 0
248 249 -180 175 0
-248 249 -180 -175 0
-250 180 0
248 -250 175 0
-248 -250 -175 0
248 250 -180 -175 0
-248 250 -180 175 0
-251 252 0
-251 248 0
-251 -180 0
251 -252 180 -248 0
252 -180 248 0
-252 180 248 0
-253 248 0
252 -253 -180 0
-252 -253 180 0
252 253 180 -248 0
-252 253 -180 -248 0
-254 248 0
252 -254 180 0
-252 -254 -180 0
252 254 -180 -248 0
-252 254 180 -248 0
-255 252 0
-255 248 0
-255 -256 0
255 256 -252 -248 0
256 252 -248 0
-256 252 248 0
-257 252 0
256 -257 -248 0
-256 -257 248 0
256 257 -252 248 0
-256 257 -252 -248 0
-258 252 0
256 -258 248 0
-256 -258 -248 0
256 258 -252 -248 0
-256 258 -252 248 0
-259 260 0
-259 256 0
-259 -252 0
259 -260 252 -256 0
260 -252 256 0
-260 252 256 0
-261 256 0
260 -261 -252 0
-260 -261 252 0
260 261 252 -256 0
-260 261 -252 -256 0
-262 256 0
260 -262 252 0
-260 -262 -252 0
260 262 -252 -256 0
-260 262 252 -256 0
-263 260 0
-263 256 0
-263 -264 0
263 264 -260 -256 0
264 260 -256 0
-264 260 256 0
-265 260 0
264 -265 -256 0
-264 -265 256 0
264 265 -260 256 0
-264 265 -260 -256 0
-266 260 0
264 -266 256 0
-264 -266 -256 0
264 266 -260 -256 0
-264 266 -260 256 0
-200 0
-220 0
-224 0
-240 0
-244 0
-260 0
-264 0
