wmc_benchmarks/MQTBench/vqe_nativegates_ibm_qiskit_opt0_4.qasm
// Used Gate Set: ['id', 'rz', 'sx', 'x', 'cx', 'measure', 'barrier']
OPENQASM 2.0;
include "qelib1.inc";
qreg q[4];
rz(0) q[0];
rx(0.5*pi) q[0];
rz(0.00011475015666162491) q[0];
rx(0.5*pi) q[0];
rz(3*pi) q[0];
rz(0) q[1];
rx(0.5*pi) q[1];
rz(3.863327348889317) q[1];
rx(0.5*pi) q[1];
rz(3*pi) q[1];
rz(0) q[2];
rx(0.5*pi) q[2];
rz(3.142280440981542) q[2];
rx(0.5*pi) q[2];
rz(3*pi) q[2];
rz(0) q[3];
rx(0.5*pi) q[3];
rz(5.150332274596459) q[3];
rx(0.5*pi) q[3];
rz(3*pi) q[3];
cx q[2],q[3];
cx q[1],q[2];
cx q[0],q[1];
rz(0) q[0];
rx(0.5*pi) q[0];
rz(3.1413474602147695) q[0];
rx(0.5*pi) q[0];
rz(3*pi) q[0];
rz(0) q[1];
rx(0.5*pi) q[1];
rz(2.984868481580871) q[1];
rx(0.5*pi) q[1];
rz(3*pi) q[1];
rz(0) q[2];
rx(0.5*pi) q[2];
rz(0.23482280721210236) q[2];
rx(0.5*pi) q[2];
rz(3*pi) q[2];
rz(0) q[3];
rx(0.5*pi) q[3];
rz(5.845494042707346) q[3];
rx(0.5*pi) q[3];
rz(3*pi) q[3];
cx q[2],q[3];
cx q[1],q[2];
cx q[0],q[1];
rz(0) q[0];
rx(0.5*pi) q[0];
rz(3.1415523765848365) q[0];
rx(0.5*pi) q[0];
rz(3*pi) q[0];
rz(0) q[1];
rx(0.5*pi) q[1];
rz(2.406085632548412) q[1];
rx(0.5*pi) q[1];
rz(3*pi) q[1];
rz(0) q[2];
rx(0.5*pi) q[2];
rz(2.9654891036682756) q[2];
rx(0.5*pi) q[2];
rz(3*pi) q[2];
rz(0) q[3];
rx(0.5*pi) q[3];
rz(1.5708015462068934) q[3];
rx(0.5*pi) q[3];
rz(3*pi) q[3];
